Route #1: 25 16 35 48 36 13 3
Route #2: 49 33 2 34 30 54 31 20 55 11 32
Route #3: 43 23 22 50 38 9 12 5 40
Route #4: 46 28 44 51 14 17 8 10 18
Route #5: 19 7 15 37 29 45 41 53
Route #6: 6 24 42 47 39 4 26 21
Route #7: 1 52 27
Cost 718